TIME 0.1s
Problem:    mdgp
Rows:       235
Columns:    200 (200 integer, 200 binary)
Non-zeros:  1180
Status:     INTEGER OPTIMAL
Objective:  diversity = 2224 (MAXimum)

   No.   Row name        Activity     Lower bound   Upper bound
------ ------------    ------------- ------------- -------------
     1 diversity                2224                             
     2 W1[0]                       1             1             = 
     3 W1[1]                       1             1             = 
     4 W1[2]                       1             1             = 
     5 W1[3]                       1             1             = 
     6 W1[4]                       1             1             = 
     7 W1[5]                       1             1             = 
     8 W1[6]                       1             1             = 
     9 W1[7]                       1             1             = 
    10 W1[8]                       1             1             = 
    11 W1[9]                       1             1             = 
    12 W4[1,0,1]                   0                           1 
    13 W4[1,0,2]                   0                           1 
    14 W4[1,0,3]                   0                           1 
    15 W4[1,0,4]                   1                           1 
    16 W4[1,0,5]                   0                           1 
    17 W4[1,0,6]                   1                           1 
    18 W4[1,0,7]                   1                           1 
    19 W4[1,0,8]                   1                           1 
    20 W4[1,0,9]                   1                           1 
    21 W4[1,1,0]                   0                           1 
    22 W4[1,1,2]                   0                           1 
    23 W4[1,1,3]                   0                           1 
    24 W4[1,1,4]                   1                           1 
    25 W4[1,1,5]                   0                           1 
    26 W4[1,1,6]                   1                           1 
    27 W4[1,1,7]                   1                           1 
    28 W4[1,1,8]                   1                           1 
    29 W4[1,1,9]                   1                           1 
    30 W4[1,2,0]                   0                           1 
    31 W4[1,2,1]                   0                           1 
    32 W4[1,2,3]                   0                           1 
    33 W4[1,2,4]                   1                           1 
    34 W4[1,2,5]                   0                           1 
    35 W4[1,2,6]                   1                           1 
    36 W4[1,2,7]                   1                           1 
    37 W4[1,2,8]                   1                           1 
    38 W4[1,2,9]                   1                           1 
    39 W4[1,3,0]                   0                           1 
    40 W4[1,3,1]                   0                           1 
    41 W4[1,3,2]                   0                           1 
    42 W4[1,3,4]                   1                           1 
    43 W4[1,3,5]                   0                           1 
    44 W4[1,3,6]                   1                           1 
    45 W4[1,3,7]                   1                           1 
    46 W4[1,3,8]                   1                           1 
    47 W4[1,3,9]                   1                           1 
    48 W4[1,4,0]                   1                           1 
    49 W4[1,4,1]                   1                           1 
    50 W4[1,4,2]                   1                           1 
    51 W4[1,4,3]                   1                           1 
    52 W4[1,4,5]                   1                           1 
    53 W4[1,4,6]                   1                           1 
    54 W4[1,4,7]                   1                           1 
    55 W4[1,4,8]                   1                           1 
    56 W4[1,4,9]                   1                           1 
    57 W4[1,5,0]                   0                           1 
    58 W4[1,5,1]                   0                           1 
    59 W4[1,5,2]                   0                           1 
    60 W4[1,5,3]                   0                           1 
    61 W4[1,5,4]                   1                           1 
    62 W4[1,5,6]                   1                           1 
    63 W4[1,5,7]                   1                           1 
    64 W4[1,5,8]                   1                           1 
    65 W4[1,5,9]                   1                           1 
    66 W4[1,6,0]                   1                           1 
    67 W4[1,6,1]                   1                           1 
    68 W4[1,6,2]                   1                           1 
    69 W4[1,6,3]                   1                           1 
    70 W4[1,6,4]                   1                           1 
    71 W4[1,6,5]                   1                           1 
    72 W4[1,6,7]                   1                           1 
    73 W4[1,6,8]                   1                           1 
    74 W4[1,6,9]                   1                           1 
    75 W4[1,7,0]                   1                           1 
    76 W4[1,7,1]                   1                           1 
    77 W4[1,7,2]                   1                           1 
    78 W4[1,7,3]                   1                           1 
    79 W4[1,7,4]                   1                           1 
    80 W4[1,7,5]                   1                           1 
    81 W4[1,7,6]                   1                           1 
    82 W4[1,7,8]                   1                           1 
    83 W4[1,7,9]                   1                           1 
    84 W4[1,8,0]                   1                           1 
    85 W4[1,8,1]                   1                           1 
    86 W4[1,8,2]                   1                           1 
    87 W4[1,8,3]                   1                           1 
    88 W4[1,8,4]                   1                           1 
    89 W4[1,8,5]                   1                           1 
    90 W4[1,8,6]                   1                           1 
    91 W4[1,8,7]                   1                           1 
    92 W4[1,8,9]                   1                           1 
    93 W4[1,9,0]                   1                           1 
    94 W4[1,9,1]                   1                           1 
    95 W4[1,9,2]                   1                           1 
    96 W4[1,9,3]                   1                           1 
    97 W4[1,9,4]                   1                           1 
    98 W4[1,9,5]                   1                           1 
    99 W4[1,9,6]                   1                           1 
   100 W4[1,9,7]                   1                           1 
   101 W4[1,9,8]                   1                           1 
   102 W4[2,0,1]                   1                           1 
   103 W4[2,0,2]                   1                           1 
   104 W4[2,0,3]                   1                           1 
   105 W4[2,0,4]                   1                           1 
   106 W4[2,0,5]                   1                           1 
   107 W4[2,0,6]                   1                           1 
   108 W4[2,0,7]                   1                           1 
   109 W4[2,0,8]                   1                           1 
   110 W4[2,0,9]                   1                           1 
   111 W4[2,1,0]                   1                           1 
   112 W4[2,1,2]                   1                           1 
   113 W4[2,1,3]                   1                           1 
   114 W4[2,1,4]                   1                           1 
   115 W4[2,1,5]                   1                           1 
   116 W4[2,1,6]                   1                           1 
   117 W4[2,1,7]                   1                           1 
   118 W4[2,1,8]                   1                           1 
   119 W4[2,1,9]                   1                           1 
   120 W4[2,2,0]                   1                           1 
   121 W4[2,2,1]                   1                           1 
   122 W4[2,2,3]                   1                           1 
   123 W4[2,2,4]                   1                           1 
   124 W4[2,2,5]                   1                           1 
   125 W4[2,2,6]                   1                           1 
   126 W4[2,2,7]                   1                           1 
   127 W4[2,2,8]                   1                           1 
   128 W4[2,2,9]                   1                           1 
   129 W4[2,3,0]                   1                           1 
   130 W4[2,3,1]                   1                           1 
   131 W4[2,3,2]                   1                           1 
   132 W4[2,3,4]                   1                           1 
   133 W4[2,3,5]                   1                           1 
   134 W4[2,3,6]                   1                           1 
   135 W4[2,3,7]                   1                           1 
   136 W4[2,3,8]                   1                           1 
   137 W4[2,3,9]                   1                           1 
   138 W4[2,4,0]                   1                           1 
   139 W4[2,4,1]                   1                           1 
   140 W4[2,4,2]                   1                           1 
   141 W4[2,4,3]                   1                           1 
   142 W4[2,4,5]                   1                           1 
   143 W4[2,4,6]                   0                           1 
   144 W4[2,4,7]                   0                           1 
   145 W4[2,4,8]                   0                           1 
   146 W4[2,4,9]                   0                           1 
   147 W4[2,5,0]                   1                           1 
   148 W4[2,5,1]                   1                           1 
   149 W4[2,5,2]                   1                           1 
   150 W4[2,5,3]                   1                           1 
   151 W4[2,5,4]                   1                           1 
   152 W4[2,5,6]                   1                           1 
   153 W4[2,5,7]                   1                           1 
   154 W4[2,5,8]                   1                           1 
   155 W4[2,5,9]                   1                           1 
   156 W4[2,6,0]                   1                           1 
   157 W4[2,6,1]                   1                           1 
   158 W4[2,6,2]                   1                           1 
   159 W4[2,6,3]                   1                           1 
   160 W4[2,6,4]                   0                           1 
   161 W4[2,6,5]                   1                           1 
   162 W4[2,6,7]                   0                           1 
   163 W4[2,6,8]                   0                           1 
   164 W4[2,6,9]                   0                           1 
   165 W4[2,7,0]                   1                           1 
   166 W4[2,7,1]                   1                           1 
   167 W4[2,7,2]                   1                           1 
   168 W4[2,7,3]                   1                           1 
   169 W4[2,7,4]                   0                           1 
   170 W4[2,7,5]                   1                           1 
   171 W4[2,7,6]                   0                           1 
   172 W4[2,7,8]                   0                           1 
   173 W4[2,7,9]                   0                           1 
   174 W4[2,8,0]                   1                           1 
   175 W4[2,8,1]                   1                           1 
   176 W4[2,8,2]                   1                           1 
   177 W4[2,8,3]                   1                           1 
   178 W4[2,8,4]                   0                           1 
   179 W4[2,8,5]                   1                           1 
   180 W4[2,8,6]                   0                           1 
   181 W4[2,8,7]                   0                           1 
   182 W4[2,8,9]                   0                           1 
   183 W4[2,9,0]                   1                           1 
   184 W4[2,9,1]                   1                           1 
   185 W4[2,9,2]                   1                           1 
   186 W4[2,9,3]                   1                           1 
   187 W4[2,9,4]                   0                           1 
   188 W4[2,9,5]                   1                           1 
   189 W4[2,9,6]                   0                           1 
   190 W4[2,9,7]                   0                           1 
   191 W4[2,9,8]                   0                           1 
   192 W5[1,0]                     0                          -0 
   193 W5[1,1]                     0                          -0 
   194 W5[1,2]                     0                          -0 
   195 W5[1,3]                     0                          -0 
   196 W5[1,4]                     0                          -0 
   197 W5[1,5]                     0                          -0 
   198 W5[1,6]                     0                          -0 
   199 W5[1,7]                     0                          -0 
   200 W5[1,8]                     0                          -0 
   201 W5[1,9]                     0                          -0 
   202 W5[2,0]                     0                          -0 
   203 W5[2,1]                     0                          -0 
   204 W5[2,2]                     0                          -0 
   205 W5[2,3]                     0                          -0 
   206 W5[2,4]                     0                          -0 
   207 W5[2,5]                     0                          -0 
   208 W5[2,6]                     0                          -0 
   209 W5[2,7]                     0                          -0 
   210 W5[2,8]                     0                          -0 
   211 W5[2,9]                     0                          -0 
   212 W6[1,0]                     0                          -0 
   213 W6[1,1]                     0                          -0 
   214 W6[1,2]                     0                          -0 
   215 W6[1,3]                     0                          -0 
   216 W6[1,4]                     0                          -0 
   217 W6[1,5]                     0                          -0 
   218 W6[1,6]                     0                          -0 
   219 W6[1,7]                     0                          -0 
   220 W6[1,8]                     0                          -0 
   221 W6[1,9]                     0                          -0 
   222 W6[2,0]                     0                          -0 
   223 W6[2,1]                     0                          -0 
   224 W6[2,2]                     0                          -0 
   225 W6[2,3]                     0                          -0 
   226 W6[2,4]                     0                          -0 
   227 W6[2,5]                     0                          -0 
   228 W6[2,6]                     0                          -0 
   229 W6[2,7]                     0                          -0 
   230 W6[2,8]                     0                          -0 
   231 W6[2,9]                     0                          -0 
   232 W2[1]                       5                           5 
   233 W2[2]                       5                           5 
   234 W3[1]                       5             5               
   235 W3[2]                       5             5               

   No. Column name       Activity     Lower bound   Upper bound
------ ------------    ------------- ------------- -------------
     1 y[0,1,1]     *              0             0             1 
     2 y[0,2,1]     *              0             0             1 
     3 y[0,3,1]     *              0             0             1 
     4 y[0,4,1]     *              0             0             1 
     5 y[0,5,1]     *              0             0             1 
     6 y[0,6,1]     *              0             0             1 
     7 y[0,7,1]     *              0             0             1 
     8 y[0,8,1]     *              0             0             1 
     9 y[0,9,1]     *              0             0             1 
    10 y[1,0,1]     *              0             0             1 
    11 y[1,2,1]     *              0             0             1 
    12 y[1,3,1]     *              0             0             1 
    13 y[1,4,1]     *              0             0             1 
    14 y[1,5,1]     *              0             0             1 
    15 y[1,6,1]     *              0             0             1 
    16 y[1,7,1]     *              0             0             1 
    17 y[1,8,1]     *              0             0             1 
    18 y[1,9,1]     *              0             0             1 
    19 y[2,0,1]     *              0             0             1 
    20 y[2,1,1]     *              0             0             1 
    21 y[2,3,1]     *              0             0             1 
    22 y[2,4,1]     *              0             0             1 
    23 y[2,5,1]     *              0             0             1 
    24 y[2,6,1]     *              0             0             1 
    25 y[2,7,1]     *              0             0             1 
    26 y[2,8,1]     *              0             0             1 
    27 y[2,9,1]     *              0             0             1 
    28 y[3,0,1]     *              0             0             1 
    29 y[3,1,1]     *              0             0             1 
    30 y[3,2,1]     *              0             0             1 
    31 y[3,4,1]     *              0             0             1 
    32 y[3,5,1]     *              0             0             1 
    33 y[3,6,1]     *              0             0             1 
    34 y[3,7,1]     *              0             0             1 
    35 y[3,8,1]     *              0             0             1 
    36 y[3,9,1]     *              0             0             1 
    37 y[4,0,1]     *              0             0             1 
    38 y[4,1,1]     *              0             0             1 
    39 y[4,2,1]     *              0             0             1 
    40 y[4,3,1]     *              0             0             1 
    41 y[4,5,1]     *              0             0             1 
    42 y[4,6,1]     *              1             0             1 
    43 y[4,7,1]     *              1             0             1 
    44 y[4,8,1]     *              1             0             1 
    45 y[4,9,1]     *              1             0             1 
    46 y[5,0,1]     *              0             0             1 
    47 y[5,1,1]     *              0             0             1 
    48 y[5,2,1]     *              0             0             1 
    49 y[5,3,1]     *              0             0             1 
    50 y[5,4,1]     *              0             0             1 
    51 y[5,6,1]     *              0             0             1 
    52 y[5,7,1]     *              0             0             1 
    53 y[5,8,1]     *              0             0             1 
    54 y[5,9,1]     *              0             0             1 
    55 y[6,0,1]     *              0             0             1 
    56 y[6,1,1]     *              0             0             1 
    57 y[6,2,1]     *              0             0             1 
    58 y[6,3,1]     *              0             0             1 
    59 y[6,4,1]     *              1             0             1 
    60 y[6,5,1]     *              0             0             1 
    61 y[6,7,1]     *              1             0             1 
    62 y[6,8,1]     *              1             0             1 
    63 y[6,9,1]     *              1             0             1 
    64 y[7,0,1]     *              0             0             1 
    65 y[7,1,1]     *              0             0             1 
    66 y[7,2,1]     *              0             0             1 
    67 y[7,3,1]     *              0             0             1 
    68 y[7,4,1]     *              1             0             1 
    69 y[7,5,1]     *              0             0             1 
    70 y[7,6,1]     *              1             0             1 
    71 y[7,8,1]     *              1             0             1 
    72 y[7,9,1]     *              1             0             1 
    73 y[8,0,1]     *              0             0             1 
    74 y[8,1,1]     *              0             0             1 
    75 y[8,2,1]     *              0             0             1 
    76 y[8,3,1]     *              0             0             1 
    77 y[8,4,1]     *              1             0             1 
    78 y[8,5,1]     *              0             0             1 
    79 y[8,6,1]     *              1             0             1 
    80 y[8,7,1]     *              1             0             1 
    81 y[8,9,1]     *              1             0             1 
    82 y[9,0,1]     *              0             0             1 
    83 y[9,1,1]     *              0             0             1 
    84 y[9,2,1]     *              0             0             1 
    85 y[9,3,1]     *              0             0             1 
    86 y[9,4,1]     *              1             0             1 
    87 y[9,5,1]     *              0             0             1 
    88 y[9,6,1]     *              1             0             1 
    89 y[9,7,1]     *              1             0             1 
    90 y[9,8,1]     *              1             0             1 
    91 y[0,1,2]     *              1             0             1 
    92 y[0,2,2]     *              1             0             1 
    93 y[0,3,2]     *              1             0             1 
    94 y[0,4,2]     *              0             0             1 
    95 y[0,5,2]     *              1             0             1 
    96 y[0,6,2]     *              0             0             1 
    97 y[0,7,2]     *              0             0             1 
    98 y[0,8,2]     *              0             0             1 
    99 y[0,9,2]     *              0             0             1 
   100 y[1,0,2]     *              1             0             1 
   101 y[1,2,2]     *              1             0             1 
   102 y[1,3,2]     *              1             0             1 
   103 y[1,4,2]     *              0             0             1 
   104 y[1,5,2]     *              1             0             1 
   105 y[1,6,2]     *              0             0             1 
   106 y[1,7,2]     *              0             0             1 
   107 y[1,8,2]     *              0             0             1 
   108 y[1,9,2]     *              0             0             1 
   109 y[2,0,2]     *              1             0             1 
   110 y[2,1,2]     *              1             0             1 
   111 y[2,3,2]     *              1             0             1 
   112 y[2,4,2]     *              0             0             1 
   113 y[2,5,2]     *              1             0             1 
   114 y[2,6,2]     *              0             0             1 
   115 y[2,7,2]     *              0             0             1 
   116 y[2,8,2]     *              0             0             1 
   117 y[2,9,2]     *              0             0             1 
   118 y[3,0,2]     *              1             0             1 
   119 y[3,1,2]     *              1             0             1 
   120 y[3,2,2]     *              1             0             1 
   121 y[3,4,2]     *              0             0             1 
   122 y[3,5,2]     *              1             0             1 
   123 y[3,6,2]     *              0             0             1 
   124 y[3,7,2]     *              0             0             1 
   125 y[3,8,2]     *              0             0             1 
   126 y[3,9,2]     *              0             0             1 
   127 y[4,0,2]     *              0             0             1 
   128 y[4,1,2]     *              0             0             1 
   129 y[4,2,2]     *              0             0             1 
   130 y[4,3,2]     *              0             0             1 
   131 y[4,5,2]     *              0             0             1 
   132 y[4,6,2]     *              0             0             1 
   133 y[4,7,2]     *              0             0             1 
   134 y[4,8,2]     *              0             0             1 
   135 y[4,9,2]     *              0             0             1 
   136 y[5,0,2]     *              1             0             1 
   137 y[5,1,2]     *              1             0             1 
   138 y[5,2,2]     *              1             0             1 
   139 y[5,3,2]     *              1             0             1 
   140 y[5,4,2]     *              0             0             1 
   141 y[5,6,2]     *              0             0             1 
   142 y[5,7,2]     *              0             0             1 
   143 y[5,8,2]     *              0             0             1 
   144 y[5,9,2]     *              0             0             1 
   145 y[6,0,2]     *              0             0             1 
   146 y[6,1,2]     *              0             0             1 
   147 y[6,2,2]     *              0             0             1 
   148 y[6,3,2]     *              0             0             1 
   149 y[6,4,2]     *              0             0             1 
   150 y[6,5,2]     *              0             0             1 
   151 y[6,7,2]     *              0             0             1 
   152 y[6,8,2]     *              0             0             1 
   153 y[6,9,2]     *              0             0             1 
   154 y[7,0,2]     *              0             0             1 
   155 y[7,1,2]     *              0             0             1 
   156 y[7,2,2]     *              0             0             1 
   157 y[7,3,2]     *              0             0             1 
   158 y[7,4,2]     *              0             0             1 
   159 y[7,5,2]     *              0             0             1 
   160 y[7,6,2]     *              0             0             1 
   161 y[7,8,2]     *              0             0             1 
   162 y[7,9,2]     *              0             0             1 
   163 y[8,0,2]     *              0             0             1 
   164 y[8,1,2]     *              0             0             1 
   165 y[8,2,2]     *              0             0             1 
   166 y[8,3,2]     *              0             0             1 
   167 y[8,4,2]     *              0             0             1 
   168 y[8,5,2]     *              0             0             1 
   169 y[8,6,2]     *              0             0             1 
   170 y[8,7,2]     *              0             0             1 
   171 y[8,9,2]     *              0             0             1 
   172 y[9,0,2]     *              0             0             1 
   173 y[9,1,2]     *              0             0             1 
   174 y[9,2,2]     *              0             0             1 
   175 y[9,3,2]     *              0             0             1 
   176 y[9,4,2]     *              0             0             1 
   177 y[9,5,2]     *              0             0             1 
   178 y[9,6,2]     *              0             0             1 
   179 y[9,7,2]     *              0             0             1 
   180 y[9,8,2]     *              0             0             1 
   181 x[0,1]       *              0             0             1 
   182 x[0,2]       *              1             0             1 
   183 x[1,1]       *              0             0             1 
   184 x[1,2]       *              1             0             1 
   185 x[2,1]       *              0             0             1 
   186 x[2,2]       *              1             0             1 
   187 x[3,1]       *              0             0             1 
   188 x[3,2]       *              1             0             1 
   189 x[4,1]       *              1             0             1 
   190 x[4,2]       *              0             0             1 
   191 x[5,1]       *              0             0             1 
   192 x[5,2]       *              1             0             1 
   193 x[6,1]       *              1             0             1 
   194 x[6,2]       *              0             0             1 
   195 x[7,1]       *              1             0             1 
   196 x[7,2]       *              0             0             1 
   197 x[8,1]       *              1             0             1 
   198 x[8,2]       *              0             0             1 
   199 x[9,1]       *              1             0             1 
   200 x[9,2]       *              0             0             1 

Integer feasibility conditions:

KKT.PE: max.abs.err = 0.00e+00 on row 0
        max.rel.err = 0.00e+00 on row 0
        High quality

KKT.PB: max.abs.err = 0.00e+00 on row 0
        max.rel.err = 0.00e+00 on row 0
        High quality

End of output
